6 16 4 10
14 13 15 5 17 20 12 18 16 11 17 1 15 9 8 9 
1.04 2.45 2.45 4.31 4.31 7.09 6.05 7.76 3.73 4.76 4.53 5.54 7.76 6.83 2.29 1.41 
5.55 2.44 6.96 1.97 6.87 6.86 1.45 3.66 0.54 3.13 4.49 1.82 0.69 2.86 3.24 3.06 
6.53 4.55 1.4 6.26 7.96 4.37 1.21 1.62 2.39 7.85 4.77 1.33 2.86 3.32 3.58 7.5 
6.54 3.79 3.99 5.43 1.23 0.41 3.04 5.7 3.03 6.83 1.73 6.23 5.38 5.87 3.06 3.48 
4 4 4 4 4 4 4 4 4 4 4 4 4 4 4 4 
0.48 1.74 5.15 5.47 6.51 7.89 5.16 7.32 6.08 5.47 5.56 0.92 6.11 3.09 3.57 4.93 
1 1 1 1 1 1 1 1 1 1 1 1 1 1 1 1 
1 1 1 1 1 1 1 1 1 1 1 1 1 1 1 1 
1 1 1 1 1 1 1 1 1 1 1 1 1 1 1 1 
1 1 1 1 1 1 1 1 1 1 1 1 1 1 1 1 
1 1 1 1 1 1 1 1 1 1 1 1 1 1 1 1 
1 1 1 1 1 1 1 1 1 1 1 1 1 1 1 1 
0.01 0.01 0.01 0.01 0.01 0.01 0.01 0.01 0.01 0.01 0.01 0.01 0.01 0.01 0.01 0.01 
0.02 0.02 0.02 0.02 0.02 0.02 0.02 0.02 0.02 0.02 0.02 0.02 0.02 0.02 0.02 0.02 
0.03 0.03 0.03 0.03 0.03 0.03 0.03 0.03 0.03 0.03 0.03 0.03 0.03 0.03 0.03 0.03 
0.04 0.04 0.04 0.04 0.04 0.04 0.04 0.04 0.04 0.04 0.04 0.04 0.04 0.04 0.04 0.04 
0.05 0.05 0.05 0.05 0.05 0.05 0.05 0.05 0.05 0.05 0.05 0.05 0.05 0.05 0.05 0.05 
1 1 1 1 1 1 1 1 1 1 1 1 1 1 1 1 
